(declare-fun temp914_1 () (_ BitVec 64))
(declare-fun var267855 () (_ BitVec 64))
(declare-fun k!0 () Bool)
(declare-fun ARGNAME_input_NAMEEND_DIM () (_ BitVec 64))
(declare-fun ARGNAME_target_NAMEEND_DIM () (_ BitVec 64))
(declare-fun temp914_2 () (_ BitVec 64))
(declare-fun ARGNAME_label_smoothing_NAMEEND () (_ BitVec 64))
(declare-fun var70865 () (_ BitVec 64))
(declare-fun temp914_3 () (_ BitVec 64))
(declare-fun temp914_4 () (_ BitVec 64))
(declare-fun var70867 () (_ BitVec 64))
(declare-fun temp914_5 () (_ BitVec 64))
(declare-fun temp914_6 () (_ BitVec 64))
(declare-fun var921507 () (_ BitVec 64))
(declare-fun var921510 () (_ BitVec 64))
(declare-fun var1117505 () (_ BitVec 64))
(declare-fun temp914_8 () (_ BitVec 64))
(declare-fun temp914_7 () (_ BitVec 64))
(declare-fun temp914_9 () (_ BitVec 64))
(declare-fun var917872 () (_ BitVec 64))
(declare-fun temp914_10 () (_ BitVec 64))
(declare-fun temp914_11 () (_ BitVec 64))
(declare-fun ARGNAME_weight_NAMEEND_DIMSIZE
             ()
             (Array (_ BitVec 64) (_ BitVec 64)))
(declare-fun temp914_12 () (_ BitVec 64))
(declare-fun temp914_13 () (_ BitVec 64))
(declare-fun temp914_14 () (_ BitVec 64))
(declare-fun temp914_15 () (_ BitVec 64))
(declare-fun temp914_16 () (_ BitVec 64))
(declare-fun temp914_17 () (_ BitVec 64))
(declare-fun temp914_18 () (_ BitVec 64))
(declare-fun temp914_19 () (_ BitVec 64))
(declare-fun temp914_20 () (_ BitVec 64))
(declare-fun temp914_21 () (_ BitVec 64))
(declare-fun temp914_22 () (_ BitVec 64))
(declare-fun temp914_23 () (_ BitVec 64))
(declare-fun temp914_24 () (_ BitVec 64))
(declare-fun temp914_25 () (_ BitVec 64))
(declare-fun temp914_26 () (_ BitVec 64))
(declare-fun temp914_27 () (_ BitVec 64))
(declare-fun temp914_28 () (_ BitVec 64))
(declare-fun ARGNAME_weight_NAMEEND_DIM () (_ BitVec 64))
(declare-fun temp914_29 () (_ BitVec 64))
(declare-fun temp914_30 () (_ BitVec 64))
(declare-fun var921553 () (_ BitVec 64))
(declare-fun var2690473 () (_ BitVec 64))
(declare-fun temp914_31 () (_ BitVec 64))
(declare-fun var3280385 () (_ BitVec 64))
(declare-fun temp914_33 () (_ BitVec 64))
(declare-fun temp914_32 () (_ BitVec 64))
(declare-fun temp914_34 () (_ BitVec 64))
(declare-fun ARGNAME_reduction_NAMEEND () (_ BitVec 64))
(assert (= var267855
   (ite (= ARGNAME_input_NAMEEND_DIM ARGNAME_target_NAMEEND_DIM)
        #x0000000000000001
        #x0000000000000000)))
(assert (= temp914_1 #x0000000000000001))
(assert (= var267855 temp914_1))
(assert (= temp914_2 #x0000000000000000))
(assert (= var70865
   (ite (bvsgt ARGNAME_label_smoothing_NAMEEND temp914_2)
        #x0000000000000001
        #x0000000000000000)))
(assert (= temp914_3 #x0000000000000001))
(assert (= var70865 temp914_3))
(assert (= temp914_4 #x0000000000000001))
(assert (= var70867
   (ite (bvsgt ARGNAME_label_smoothing_NAMEEND temp914_4)
        #x0000000000000001
        #x0000000000000000)))
(assert (= temp914_5 #x0000000000000000))
(assert (= var70867 temp914_5))
(assert (= temp914_6 #x0000000000000001))
(assert (= var921507
   (ite (distinct ARGNAME_input_NAMEEND_DIM temp914_6)
        #x0000000000000001
        #x0000000000000000)))
(assert (= var921510 var921507))
(assert (= var1117505 var921510))
(assert (= temp914_8 #x0000000000000001))
(assert (= temp914_7 temp914_8))
(assert (= temp914_9 #x0000000000000000))
(assert (= var917872 temp914_9))
(assert (= temp914_10 #x0000000000000000))
(assert (= temp914_11 temp914_10))
(assert (= temp914_12 (select ARGNAME_weight_NAMEEND_DIMSIZE temp914_11)))
(assert (= temp914_13 #x0000000000000001))
(assert (= temp914_14 temp914_13))
(assert (= temp914_15 (select ARGNAME_weight_NAMEEND_DIMSIZE temp914_14)))
(assert (= temp914_16 #x0000000000000002))
(assert (= temp914_17 temp914_16))
(assert (= temp914_18 (select ARGNAME_weight_NAMEEND_DIMSIZE temp914_17)))
(assert (= temp914_19 #x0000000000000003))
(assert (= temp914_20 temp914_19))
(assert (= temp914_21 (select ARGNAME_weight_NAMEEND_DIMSIZE temp914_20)))
(assert (= temp914_22 #x0000000000000004))
(assert (= temp914_23 temp914_22))
(assert (= temp914_24 (select ARGNAME_weight_NAMEEND_DIMSIZE temp914_23)))
(assert (= temp914_25 #x0000000000000005))
(assert (= temp914_26 temp914_25))
(assert (= temp914_27 (select ARGNAME_weight_NAMEEND_DIMSIZE temp914_26)))
(assert (= temp914_28 #x0000000000000000))
(assert (= temp914_29
   (ite (bvslt var917872 temp914_28)
        (bvadd ARGNAME_weight_NAMEEND_DIM var917872)
        var917872)))
(assert (= temp914_30 (select ARGNAME_weight_NAMEEND_DIMSIZE temp914_29)))
(assert (= var921553 temp914_30))
(assert (bvslt (ite (bvslt var917872 temp914_28)
            (bvadd ARGNAME_weight_NAMEEND_DIM var917872)
            var917872)
       ARGNAME_weight_NAMEEND_DIM))
(assert (= var2690473 var921510))
(assert (= temp914_31 #x0000000000000000))
(assert (= var3280385 temp914_31))
(assert (= temp914_33 #x0000000000000005))
(assert (= temp914_32 temp914_33))
(assert (= temp914_34 #x0000000000000000))
(assert (or false (= ARGNAME_reduction_NAMEEND temp914_34)))
(model-add temp914_1 () (_ BitVec 64) #x0000000000000001)
(model-add var267855 () (_ BitVec 64) #x0000000000000001)
(model-del k!0)
(model-add ARGNAME_input_NAMEEND_DIM
           ()
           (_ BitVec 64)
           (ite k!0
                ARGNAME_target_NAMEEND_DIM
                (bvnot ARGNAME_target_NAMEEND_DIM)))





